
se = 80; % nombre de sessions
gr = 40; % nombre de grups de treball
cl = 12; % nombre de slots
minPapersPerSlot = 3; % minim nombre d'articles per sessio i slot
maxSesionsPar = 20; % maxim nombre de sessions paraleles

npMax = [6, 6, 6, 6, 6, 3, 5, 3, 4, 4, 4, 3]; % nombre maxim de papers per slot

np = [9, 7, 14, 6, 14, 9, 8, 14, 18, 16, 5, 8, 17, 10, 10, 14, 17, 4, 11, 10, 10, 3, 15, 13, 3, 15, 8, 5, 3, 9, 8, 9, 14, 3, 18, 3, 8, 10, 3, 17, 12, 15, 3, 15, 9, 3, 13, 3, 9, 4, 13, 6, 8, 5, 12, 3, 19, 6, 8, 15, 11, 7, 6, 12, 18, 3, 3, 10, 11, 19, 3, 14, 15, 7, 10, 9, 16, 9, 19, 3]; % nombre de papers acceptats a cada sessio

WG = [ {}, {1}, {2}, {3}, {}, {4,5}, {}, {}, {}, {6,7}, {8}, {}, {}, {9}, {}, {10}, {}, {11}, {12}, {}, {13}, {}, {14}, {}, {15,16}, {17,18}, {19,20,21}, {22}, {23}, {24}, {}, {}, {}, {25,26,27}, {}, {28}, {}, {}, {29}, {30}, {31,32,33}, {34}, {35}, {}, {36}, {37,38}, {39}, {40}, {1,2,3}, {4}, {5,6,7}, {8,9}, {10}, {11}, {}, {}, {12,13,14}, {}, {}, {15}, {16}, {17}, {}, {18}, {19}, {20,21}, {}, {}, {22}, {}, {23,24,25}, {26,27,28}, {}, {29,30,31}, {}, {32}, {}, {33,34}, {35}, {36,37} ]; % grups per sessio

